results_rootrelaxation/bin024_050_016.srr.sol
solution status: optimal solution found
objective value:                                    0
_var28_                             0.155143014107378 	(obj:0)
_var1749_                           0.103740300754543 	(obj:0)
_var4031_                           0.173911157358631 	(obj:0)
_var6937_                           0.058179890227342 	(obj:0)
_var6939_                          0.0527030849157718 	(obj:0)
_var6940_                          0.0931279991018063 	(obj:0)
_var6944_                           0.148744888913862 	(obj:0)
_var6947_                          0.0461868786653795 	(obj:0)
_var6950_                           0.142034276027396 	(obj:0)
_var6952_                           0.176996833232013 	(obj:0)
_var6955_                           0.117162852650377 	(obj:0)
_var6956_                          0.0667203702006354 	(obj:0)
_var6957_                          0.0837329659288927 	(obj:0)
_var6960_                          0.0273354489276984 	(obj:0)
_var6963_                           0.097634875656474 	(obj:0)
_var6965_                          0.0483973036521229 	(obj:0)
_var6971_                           0.222383552749827 	(obj:0)
_var6983_                          0.0858613428986753 	(obj:0)
_var6984_                          0.0882349521255263 	(obj:0)
_var6985_                          0.0171799852582056 	(obj:0)
_var6994_                          0.0211617021084739 	(obj:0)
_var7020_                           0.264480451505712 	(obj:0)
_var7030_                           0.228142600563358 	(obj:0)
_var7039_                           0.120654304711288 	(obj:0)
_var7049_                          0.0990293203465171 	(obj:0)
_var7050_                           0.111710952753443 	(obj:0)
_var7052_                          0.0129018522250971 	(obj:0)
_var7054_                           0.188009064869763 	(obj:0)
_var7055_                           0.124833006726826 	(obj:0)
_var7057_                          0.0296410800163693 	(obj:0)
_var7058_                           0.131889362210677 	(obj:0)
_var7061_                           0.043943612296179 	(obj:0)
_var7063_                          0.0265114083895083 	(obj:0)
_var7064_                           0.161854595826797 	(obj:0)
_var7069_                           0.118616919425628 	(obj:0)
_var7070_                           0.091848975734221 	(obj:0)
_var7073_                           0.190332863414255 	(obj:0)
_var7075_                           0.143780999790867 	(obj:0)
_var7077_                           0.140555610047266 	(obj:0)
_var7078_                          0.0530184393009922 	(obj:0)
_var7079_                           0.136349935093241 	(obj:0)
_var7082_                           0.068912925929462 	(obj:0)
_var7084_                           0.178019066178688 	(obj:0)
_var7086_                           0.121308930424871 	(obj:0)
_var7088_                          0.0590967227408358 	(obj:0)
_var7089_                          0.0204762649885417 	(obj:0)
_var7092_                           0.211992336841739 	(obj:0)
_var7093_                           0.199463665791929 	(obj:0)
_var7097_                            0.21685494829717 	(obj:0)
_var7101_                           0.178067618987762 	(obj:0)
_var7118_                          0.0720122870891718 	(obj:0)
_var7127_                          0.0741254372063696 	(obj:0)
_var7130_                           0.131379849853902 	(obj:0)
_var7137_                           0.227564497775481 	(obj:0)
_var7138_                           0.157072610593082 	(obj:0)
_var7141_                           0.205074232977783 	(obj:0)
_var7144_                          0.0962061938420547 	(obj:0)
_var7145_                           0.305921843644498 	(obj:0)
_var7147_                          0.0384973274675808 	(obj:0)
_var7151_                          0.0513852968475547 	(obj:0)
_var7163_                          0.0790424303864601 	(obj:0)
_var7166_                           0.288876881902903 	(obj:0)
_var7170_                          0.0160254863625319 	(obj:0)
_var7174_                          0.0996614654206792 	(obj:0)
_var7175_                          0.0618292576301184 	(obj:0)
_var7176_                           0.173737458193894 	(obj:0)
_var7177_                          0.0863184022105053 	(obj:0)
_var7178_                          0.0301555850703885 	(obj:0)
_var7180_                            0.10915618011675 	(obj:0)
_var7182_                           0.139762697885373 	(obj:0)
_var7187_                           0.018965128504022 	(obj:0)
_var7194_                           0.224503347072647 	(obj:0)
_var7199_                           0.194139930187166 	(obj:0)
_var7200_                          0.0720061172375733 	(obj:0)
_var7203_                           0.233964533181208 	(obj:0)
_var7211_                          0.0559672684825798 	(obj:0)
_var7213_                           0.107530995308274 	(obj:0)
_var7218_                           0.192140219065278 	(obj:0)
_var7220_                          0.0295605145206216 	(obj:0)
_var7221_                          0.0290466179174171 	(obj:0)
_var7223_                          0.0331864277520969 	(obj:0)
_var7224_                           0.129752418702272 	(obj:0)
_var7227_                          0.0760703801969483 	(obj:0)
_var7228_                           0.072162810835052 	(obj:0)
_var7229_                           0.140459678129555 	(obj:0)
_var7231_                          0.0838577773074669 	(obj:0)
_var7232_                           0.176248119394289 	(obj:0)
_var7233_                          0.0227667755610265 	(obj:0)
_var7234_                         0.00913120709196307 	(obj:0)
_var7236_                          0.0369030907901759 	(obj:0)
_var7239_                          0.0178661199473699 	(obj:0)
_var7241_                          0.0662640160527645 	(obj:0)
_var7242_                           0.168197841983691 	(obj:0)
_var7244_                         0.00200132583965068 	(obj:0)
_var7248_                           0.207639791355832 	(obj:0)
_var7249_                          0.0280366044405233 	(obj:0)
_var7250_                           0.037198992017396 	(obj:0)
_var7251_                          0.0906052088750722 	(obj:0)
_var7253_                          0.0526614639302888 	(obj:0)
_var7255_                           0.181677281708056 	(obj:0)
_var7256_                          0.0998188834985516 	(obj:0)
_var7259_                           0.116037430305772 	(obj:0)
_var7261_                          0.0153972075658078 	(obj:0)
_var7264_                           0.125374379076855 	(obj:0)
_var7267_                           0.134114821668142 	(obj:0)
_var7270_                          0.0849934540713142 	(obj:0)
_var7271_                           0.194112216405989 	(obj:0)
_var7273_                           0.187454869509658 	(obj:0)
_var7275_                          0.0136717016363049 	(obj:0)
_var7276_                          0.0521077406110875 	(obj:0)
_var7279_                           0.178242684122782 	(obj:0)
_var7282_                          0.0830392294974271 	(obj:0)
_var7283_                           0.103110890557754 	(obj:0)
_var7284_                           0.150945730803138 	(obj:0)
_var7286_                         0.00111704991972668 	(obj:0)
_var7287_                           0.215100517655408 	(obj:0)
_var7289_                           0.132657604116464 	(obj:0)
_var7290_                          0.0454531266525637 	(obj:0)
_var7292_                           0.108579739606515 	(obj:0)
_var7293_                           0.111242253791844 	(obj:0)
_var7295_                           0.112541549519533 	(obj:0)
_var7296_                          0.0337498965583995 	(obj:0)
_var7299_                          0.0635901638834867 	(obj:0)
_var7301_                           0.156237473823759 	(obj:0)
_var7304_                          0.0591712270470221 	(obj:0)
_var7305_                         0.00240783154744417 	(obj:0)
_var7306_                          0.0995683920471062 	(obj:0)
_var7307_                           0.120776083801666 	(obj:0)
_var7309_                          0.0284931668196397 	(obj:0)
_var7310_                          0.0137266355156419 	(obj:0)
_var7311_                           0.220281910388071 	(obj:0)
_var7312_                           0.174533611281867 	(obj:0)
_var7313_                           0.179111370992466 	(obj:0)
_var7316_                          0.0616037262533449 	(obj:0)
_var7318_                           0.116988882324857 	(obj:0)
_var7320_                          0.0760148716667749 	(obj:0)
_var7322_                          0.0878663715578402 	(obj:0)
_var7323_                         0.00450650460125102 	(obj:0)
_var7325_                          0.0273839388382949 	(obj:0)
_var7326_                           0.033377681592721 	(obj:0)
_var7327_                           0.169017503204921 	(obj:0)
_var7328_                          0.0508740993656344 	(obj:0)
_var7330_                         0.00197439469248563 	(obj:0)
_var7332_                           0.079021829860756 	(obj:0)
_var7333_                         0.000900075349706264 	(obj:0)
_var7336_                           0.119646609837753 	(obj:0)
_var7339_                          0.0278601493893741 	(obj:0)
_var7340_                          0.0896701836087338 	(obj:0)
_var7341_                          0.0235793931768229 	(obj:0)
_var7344_                           0.119138049836128 	(obj:0)
_var7346_                           0.188126175446101 	(obj:0)
_var7347_                          0.0561887075309731 	(obj:0)
_var7349_                          0.0932587851189054 	(obj:0)
_var7350_                          0.0589687488058411 	(obj:0)
_var7351_                          0.0668417052651047 	(obj:0)
_var7352_                          0.0293415799700477 	(obj:0)
_var7353_                           0.149518087251021 	(obj:0)
_var7354_                           0.154818814471759 	(obj:0)
_var7355_                          0.0830212464164887 	(obj:0)
_var7356_                           0.125323617495778 	(obj:0)
_var7357_                          0.0217176131587495 	(obj:0)
_var7363_                          0.0996314575941741 	(obj:0)
_var7364_                         0.00779629975796525 	(obj:0)
_var7367_                           0.137590495914081 	(obj:0)
_var7368_                          0.0925463051303268 	(obj:0)
_var7370_                           0.011242869474587 	(obj:0)
_var7372_                           0.228644600856839 	(obj:0)
_var7374_                          0.0294983820650415 	(obj:0)
_var7375_                          0.0384322812846163 	(obj:0)
_var7380_                           0.136435635405326 	(obj:0)
_var7381_                           0.184505123825434 	(obj:0)
_var7382_                           0.129122881583793 	(obj:0)
_var7383_                          0.0436939310805173 	(obj:0)
_var7385_                         0.00658967337277303 	(obj:0)
_var7386_                          0.0164576669160748 	(obj:0)
_var7387_                          0.0751912171506994 	(obj:0)
_var7389_                          0.0249175143525114 	(obj:0)
_var7390_                            0.14010182978059 	(obj:0)
_var7391_                         0.000114836799440034 	(obj:0)
_var7392_                          0.0856627281398014 	(obj:0)
_var7394_                          0.0117687965565978 	(obj:0)
_var7395_                          0.0728891001477765 	(obj:0)
_var7396_                          0.0360170902566981 	(obj:0)
_var7402_                          0.0194219239161619 	(obj:0)
_var7403_                          0.0268416781880188 	(obj:0)
_var7404_                          0.0173793971210324 	(obj:0)
_var7405_                            0.11402080662714 	(obj:0)
_var7406_                           0.064704147391201 	(obj:0)
_var7407_                           0.116513426201508 	(obj:0)
_var7408_                           0.061079910247814 	(obj:0)
_var7412_                           0.022160578565963 	(obj:0)
_var7414_                          0.0597216935673257 	(obj:0)
_var7415_                          0.0786690428363064 	(obj:0)
_var7416_                           0.065788725485948 	(obj:0)
_var7417_                          0.0446838448605536 	(obj:0)
_var7418_                          0.0369092714232548 	(obj:0)
_var7419_                         8.21400577813713e-05 	(obj:0)
_var7424_                            0.19532206099145 	(obj:0)
_var7426_                          0.0598805163821085 	(obj:0)
_var7427_                          0.0473397505321268 	(obj:0)
_var7428_                           0.041268927319715 	(obj:0)
_var7430_                           0.165920794931267 	(obj:0)
_var7431_                           0.036952528819747 	(obj:0)
_var7432_                           0.103781776966798 	(obj:0)
_var7433_                          0.0227711345294799 	(obj:0)
_var7434_                          0.0196810031737764 	(obj:0)
_var7435_                          0.0729118957465745 	(obj:0)
_var7436_                          0.0757508239671555 	(obj:0)
_var7439_                          0.0976088952488837 	(obj:0)
_var7443_                          0.0445942466041335 	(obj:0)
_var7444_                           0.074110904584547 	(obj:0)
_var7445_                          0.0422532394551708 	(obj:0)
_var7447_                           0.105124582354834 	(obj:0)
_var7448_                          0.0470880397206291 	(obj:0)
_var7449_                          0.0325076790270595 	(obj:0)
_var7455_                           0.126852311325601 	(obj:0)
_var7456_                           0.033571367519645 	(obj:0)
_var7457_                           0.087674868203981 	(obj:0)
_var7459_                           0.066684389015468 	(obj:0)
_var7460_                          0.0656579390320828 	(obj:0)
_var7461_                          0.0204524919556698 	(obj:0)
_var7463_                           0.135569626301964 	(obj:0)
_var7464_                          0.0262771116323333 	(obj:0)
_var7465_                          0.0375795898853362 	(obj:0)
_var7467_                          0.0107466363887063 	(obj:0)
_var7468_                          0.0396878701783551 	(obj:0)
_var7469_                           0.110281713592551 	(obj:0)
_var7470_                          0.0180410349833242 	(obj:0)
_var7471_                          0.0553517707901959 	(obj:0)
_var7472_                          0.0726364609015958 	(obj:0)
_var7474_                           0.036068196396717 	(obj:0)
_var7475_                          0.0307650958449843 	(obj:0)
_var7476_                          0.0120475570499573 	(obj:0)
_var7480_                          0.0257051492839494 	(obj:0)
_var7481_                           0.101555537087648 	(obj:0)
_var7482_                          0.0790385339452365 	(obj:0)
_var7484_                          0.0896516297884062 	(obj:0)
_var7485_                          0.0575421362472994 	(obj:0)
_var7486_                         0.000951515413855852 	(obj:0)
_var7487_                           0.141501157485928 	(obj:0)
_var7488_                          0.0912341152282921 	(obj:0)
_var7491_                          0.0173307013396391 	(obj:0)
_var7492_                          0.0118115335234562 	(obj:0)
_var7494_                          0.0612704216930874 	(obj:0)
_var7495_                          0.0123601913945073 	(obj:0)
_var7498_                           0.129988613335689 	(obj:0)
_var7499_                          0.0516746906190303 	(obj:0)
_var7500_                          0.0525765543646784 	(obj:0)
_var7502_                          0.0030672319197524 	(obj:0)
_var7503_                          0.0416178557800935 	(obj:0)
_var7504_                          0.0490008943943782 	(obj:0)
_var7506_                          0.0138561067405015 	(obj:0)
_var7507_                          0.0405981557484713 	(obj:0)
_var7508_                          0.0123684183415834 	(obj:0)
_var7512_                          0.0380072613392738 	(obj:0)
_var7514_                          0.0500656085951914 	(obj:0)
_var7515_                          0.0701728364186431 	(obj:0)
_var7516_                          0.0894231598515715 	(obj:0)
_var7518_                          0.0431256737538252 	(obj:0)
_var7519_                           0.045319421490887 	(obj:0)
_var7520_                          0.0750604256965876 	(obj:0)
_var7521_                         0.00962829563777545 	(obj:0)
_var7522_                          0.0631511392385423 	(obj:0)
_var7529_                          0.0241955118871718 	(obj:0)
_var7531_                          0.0393345721575194 	(obj:0)
_var7534_                          0.0421977553140356 	(obj:0)
_var7536_                          0.0223899188338406 	(obj:0)
_var7537_                          0.0136033312265182 	(obj:0)
_var7538_                          0.0338442284422504 	(obj:0)
_var7539_                          0.0395825866363114 	(obj:0)
_var7543_                            0.03325563183794 	(obj:0)
_var7545_                           0.020020221021802 	(obj:0)
_var7546_                         0.00582815224376824 	(obj:0)
_var7548_                          0.0322046075945328 	(obj:0)
_var7549_                          0.0507472546741771 	(obj:0)
